glpk/a16.dat
data;

set N := 1 2 3 4 5 6 7 8 9 10 11 12 13 14 15 16;

param x := 
1 288
2 288
3 270
4 256
5 256
6 246
7 236
8 228
9 228
10 220
11 212
12 204
13 196
14 188
15 196
16 188;

param y := 
1 149
2 129
3 133
4 141
5 157
6 157
7 169
8 169
9 161
10 169
11 169
12 169
13 169
14 169
15 161
16 145;

param r := 
1 0
2 5
3 6
4 9
5 9
6 11
7 14
8 16
9 16
10 18
11 20
12 22
13 24
14 26
15 24
16 25;

param i := 1;

param c := 270;

end;