instances/a16.oplib
NAME : a16
COMMENT : drilling problem (245)
TYPE : OP
DIMENSION: 16
COST_LIMIT : 270
EDGE_WEIGHT_TYPE : EUC_2D
NODE_COORD_SECTION
1 288 149
2 288 129
3 270 133
4 256 141
5 256 157
6 246 157
7 236 169
8 228 169
9 228 161
10 220 169
11 212 169
12 204 169
13 196 169
14 188 169
15 196 161
16 188 145
NODE_SCORE_SECTION
1 0
2 5
3 6
4 9
5 9
6 11
7 14
8 16
9 16
10 18
11 20
12 22
13 24
14 26
15 24
16 25
DEPOT_SECTION
1
-1
EOF
